Optimal - objective value -17.00000000
      0 x_0                      1                     2.5
      9 x_9                      1                   0.375
     14 x_14                     1                       0
     16 x_16                     1                     1.5
     26 x_26                     1                    0.25
     28 x_28                     1                   -0.25
     37 x_37                     1                    1.25
     39 x_39                     1                       0
     44 x_44                     1                   0.625
     47 x_47                     1                       0
     48 x_48                     1                   1.625
     49 x_49                     1                       0
     67 x_67                     1                       0
     71 x_71                     1                      -1
     76 x_76                     1                       0
     77 x_77                     1                     1.5
     81 x_81                     1                       0
